70
1 0 99
2 0 99
2 1 82
3 0 83
3 1 84
3 2 63
4 0 101
4 1 59
4 2 116
4 3 114
5 0 5
5 1 71
5 2 104
5 3 44
5 4 104
6 0 92
6 1 40
6 2 39
6 3 15
6 4 62
6 5 46
7 0 25
7 1 30
7 2 4
7 3 24
7 4 112
7 5 51
7 6 12
8 0 53
8 1 118
8 2 88
8 3 31
8 4 69
8 5 74
8 6 95
8 7 33
9 0 54
9 1 11
9 2 70
9 3 82
9 4 54
9 5 20
9 6 65
9 7 7
9 8 95
10 0 22
10 1 6
10 2 13
10 3 101
10 4 64
10 5 107
10 6 115
10 7 78
10 8 37
10 9 47
11 0 6
11 1 112
11 2 57
11 3 24
11 4 68
11 5 27
11 6 92
11 7 120
11 8 45
11 9 120
11 10 31
12 0 71
12 1 93
12 2 110
12 3 30
12 4 12
12 5 86
12 6 62
12 7 105
12 8 41
12 9 13
12 10 119
12 11 90
13 0 59
13 1 49
13 2 115
13 3 33
13 4 79
13 5 91
13 6 21
13 7 89
13 8 116
13 9 22
13 10 100
13 11 14
13 12 34
14 0 85
14 1 86
14 2 20
14 3 84
14 4 46
14 5 48
14 6 64
14 7 44
14 8 68
14 9 47
14 10 72
14 11 36
14 12 119
14 13 75
15 0 55
15 1 31
15 2 54
15 3 1
15 4 34
15 5 107
15 6 9
15 7 94
15 8 107
15 9 71
15 10 74
15 11 100
15 12 42
15 13 102
15 14 18
16 0 42
16 1 93
16 2 20
16 3 18
16 4 54
16 5 106
16 6 63
16 7 106
16 8 64
16 9 97
16 10 28
16 11 47
16 12 78
16 13 25
16 14 71
16 15 92
17 0 6
17 1 101
17 2 67
17 3 45
17 4 85
17 5 115
17 6 64
17 7 13
17 8 69
17 9 32
17 10 101
17 11 6
17 12 80
17 13 46
17 14 72
17 15 117
17 16 53
18 0 108
18 1 115
18 2 70
18 3 1
18 4 62
18 5 114
18 6 60
18 7 1
18 8 114
18 9 62
18 10 33
18 11 47
18 12 60
18 13 36
18 14 9
18 15 33
18 16 54
18 17 38
19 0 81
19 1 88
19 2 92
19 3 84
19 4 120
19 5 17
19 6 86
19 7 3
19 8 40
19 9 42
19 10 50
19 11 106
19 12 111
19 13 115
19 14 43
19 15 97
19 16 78
19 17 51
19 18 54
20 0 82
20 1 96
20 2 84
20 3 29
20 4 24
20 5 52
20 6 73
20 7 21
20 8 5
20 9 75
20 10 47
20 11 11
20 12 101
20 13 69
20 14 107
20 15 57
20 16 12
20 17 75
20 18 33
20 19 116
21 0 69
21 1 41
21 2 69
21 3 31
21 4 106
21 5 45
21 6 11
21 7 43
21 8 38
21 9 102
21 10 76
21 11 94
21 12 4
21 13 28
21 14 16
21 15 34
21 16 34
21 17 21
21 18 4
21 19 13
21 20 19
22 0 83
22 1 63
22 2 103
22 3 13
22 4 72
22 5 65
22 6 58
22 7 31
22 8 24
22 9 16
22 10 117
22 11 21
22 12 63
22 13 54
22 14 101
22 15 84
22 16 89
22 17 89
22 18 45
22 19 107
22 20 56
22 21 96
23 0 25
23 1 39
23 2 116
23 3 114
23 4 106
23 5 27
23 6 94
23 7 62
23 8 32
23 9 14
23 10 7
23 11 26
23 12 7
23 13 13
23 14 60
23 15 6
23 16 91
23 17 109
23 18 13
23 19 76
23 20 105
23 21 18
23 22 91
24 0 112
24 1 16
24 2 90
24 3 46
24 4 114
24 5 1
24 6 28
24 7 54
24 8 98
24 9 115
24 10 39
24 11 104
24 12 30
24 13 120
24 14 39
24 15 57
24 16 54
24 17 73
24 18 107
24 19 104
24 20 101
24 21 9
24 22 36
24 23 20
25 0 19
25 1 91
25 2 50
25 3 108
25 4 109
25 5 110
25 6 107
25 7 36
25 8 23
25 9 6
25 10 24
25 11 57
25 12 35
25 13 111
25 14 79
25 15 42
25 16 75
25 17 79
25 18 73
25 19 42
25 20 1
25 21 72
25 22 19
25 23 32
25 24 19
26 0 118
26 1 50
26 2 72
26 3 4
26 4 40
26 5 120
26 6 61
26 7 47
26 8 33
26 9 24
26 10 13
26 11 81
26 12 35
26 13 29
26 14 78
26 15 7
26 16 44
26 17 39
26 18 119
26 19 33
26 20 92
26 21 70
26 22 22
26 23 83
26 24 33
26 25 120
27 0 40
27 1 63
27 2 75
27 3 113
27 4 104
27 5 38
27 6 7
27 7 114
27 8 108
27 9 5
27 10 20
27 11 96
27 12 47
27 13 58
27 14 51
27 15 13
27 16 27
27 17 77
27 18 14
27 19 109
27 20 59
27 21 48
27 22 72
27 23 117
27 24 62
27 25 94
27 26 4
28 0 105
28 1 45
28 2 45
28 3 1
28 4 118
28 5 10
28 6 95
28 7 99
28 8 118
28 9 78
28 10 41
28 11 23
28 12 59
28 13 67
28 14 25
28 15 86
28 16 113
28 17 64
28 18 92
28 19 56
28 20 99
28 21 67
28 22 110
28 23 35
28 24 106
28 25 69
28 26 65
28 27 113
29 0 111
29 1 28
29 2 52
29 3 120
29 4 32
29 5 78
29 6 38
29 7 25
29 8 10
29 9 23
29 10 107
29 11 88
29 12 7
29 13 58
29 14 98
29 15 44
29 16 26
29 17 43
29 18 36
29 19 105
29 20 93
29 21 47
29 22 70
29 23 94
29 24 37
29 25 22
29 26 53
29 27 53
29 28 101
30 0 76
30 1 82
30 2 18
30 3 38
30 4 93
30 5 1
30 6 76
30 7 95
30 8 115
30 9 110
30 10 30
30 11 31
30 12 52
30 13 53
30 14 63
30 15 99
30 16 83
30 17 108
30 18 12
30 19 101
30 20 2
30 21 115
30 22 19
30 23 13
30 24 12
30 25 82
30 26 91
30 27 21
30 28 96
30 29 42
31 0 94
31 1 62
31 2 35
31 3 33
31 4 54
31 5 7
31 6 20
31 7 105
31 8 59
31 9 20
31 10 39
31 11 78
31 12 56
31 13 45
31 14 81
31 15 116
31 16 114
31 17 27
31 18 111
31 19 84
31 20 39
31 21 6
31 22 9
31 23 14
31 24 76
31 25 78
31 26 43
31 27 79
31 28 79
31 29 11
31 30 83
32 0 49
32 1 8
32 2 21
32 3 116
32 4 54
32 5 57
32 6 25
32 7 84
32 8 42
32 9 73
32 10 23
32 11 100
32 12 65
32 13 8
32 14 64
32 15 97
32 16 40
32 17 27
32 18 110
32 19 10
32 20 86
32 21 36
32 22 108
32 23 97
32 24 43
32 25 95
32 26 49
32 27 39
32 28 37
32 29 69
32 30 26
32 31 68
33 0 51
33 1 55
33 2 114
33 3 93
33 4 50
33 5 13
33 6 51
33 7 103
33 8 19
33 9 53
33 10 21
33 11 58
33 12 66
33 13 1
33 14 63
33 15 76
33 16 15
33 17 114
33 18 76
33 19 28
33 20 28
33 21 67
33 22 26
33 23 18
33 24 44
33 25 63
33 26 12
33 27 67
33 28 12
33 29 38
33 30 69
33 31 66
33 32 74
34 0 55
34 1 35
34 2 52
34 3 106
34 4 56
34 5 38
34 6 28
34 7 95
34 8 90
34 9 40
34 10 11
34 11 115
34 12 111
34 13 27
34 14 93
34 15 8
34 16 1
34 17 76
34 18 58
34 19 86
34 20 90
34 21 4
34 22 68
34 23 37
34 24 113
34 25 65
34 26 107
34 27 59
34 28 39
34 29 58
34 30 119
34 31 9
34 32 98
34 33 43
35 0 23
35 1 53
35 2 88
35 3 110
35 4 49
35 5 113
35 6 61
35 7 23
35 8 29
35 9 97
35 10 2
35 11 119
35 12 70
35 13 53
35 14 57
35 15 10
35 16 111
35 17 27
35 18 72
35 19 114
35 20 117
35 21 30
35 22 40
35 23 8
35 24 43
35 25 53
35 26 67
35 27 113
35 28 55
35 29 14
35 30 48
35 31 53
35 32 84
35 33 116
35 34 16
36 0 2
36 1 104
36 2 109
36 3 95
36 4 120
36 5 16
36 6 33
36 7 118
36 8 10
36 9 5
36 10 55
36 11 62
36 12 58
36 13 61
36 14 101
36 15 92
36 16 69
36 17 80
36 18 68
36 19 9
36 20 111
36 21 10
36 22 87
36 23 50
36 24 9
36 25 70
36 26 85
36 27 19
36 28 39
36 29 113
36 30 9
36 31 93
36 32 75
36 33 110
36 34 118
36 35 88
37 0 15
37 1 66
37 2 13
37 3 110
37 4 6
37 5 81
37 6 86
37 7 36
37 8 5
37 9 117
37 10 3
37 11 96
37 12 109
37 13 24
37 14 41
37 15 62
37 16 87
37 17 24
37 18 47
37 19 77
37 20 56
37 21 1
37 22 109
37 23 116
37 24 91
37 25 15
37 26 55
37 27 72
37 28 42
37 29 70
37 30 106
37 31 46
37 32 57
37 33 85
37 34 2
37 35 23
37 36 19
38 0 54
38 1 66
38 2 110
38 3 12
38 4 88
38 5 10
38 6 2
38 7 92
38 8 34
38 9 91
38 10 105
38 11 92
38 12 90
38 13 18
38 14 28
38 15 79
38 16 33
38 17 26
38 18 70
38 19 96
38 20 73
38 21 42
38 22 33
38 23 99
38 24 62
38 25 16
38 26 75
38 27 106
38 28 24
38 29 8
38 30 46
38 31 94
38 32 85
38 33 59
38 34 31
38 35 67
38 36 97
38 37 62
39 0 50
39 1 24
39 2 87
39 3 65
39 4 23
39 5 62
39 6 72
39 7 97
39 8 40
39 9 57
39 10 85
39 11 120
39 12 63
39 13 31
39 14 94
39 15 108
39 16 11
39 17 9
39 18 109
39 19 59
39 20 12
39 21 65
39 22 106
39 23 14
39 24 23
39 25 100
39 26 1
39 27 74
39 28 113
39 29 30
39 30 83
39 31 56
39 32 67
39 33 100
39 34 39
39 35 39
39 36 22
39 37 119
39 38 40
40 0 73
40 1 19
40 2 57
40 3 45
40 4 112
40 5 119
40 6 11
40 7 120
40 8 71
40 9 108
40 10 118
40 11 45
40 12 41
40 13 11
40 14 46
40 15 96
40 16 23
40 17 39
40 18 13
40 19 15
40 20 1
40 21 28
40 22 43
40 23 37
40 24 13
40 25 64
40 26 44
40 27 91
40 28 13
40 29 21
40 30 18
40 31 20
40 32 85
40 33 105
40 34 42
40 35 112
40 36 42
40 37 91
40 38 99
40 39 55
41 0 76
41 1 116
41 2 77
41 3 106
41 4 13
41 5 54
41 6 59
41 7 9
41 8 109
41 9 48
41 10 95
41 11 103
41 12 16
41 13 107
41 14 99
41 15 104
41 16 7
41 17 95
41 18 110
41 19 61
41 20 71
41 21 1
41 22 38
41 23 103
41 24 67
41 25 66
41 26 39
41 27 71
41 28 84
41 29 12
41 30 111
41 31 15
41 32 47
41 33 112
41 34 93
41 35 78
41 36 79
41 37 58
41 38 64
41 39 97
41 40 108
42 0 106
42 1 90
42 2 2
42 3 31
42 4 20
42 5 92
42 6 98
42 7 92
42 8 15
42 9 51
42 10 90
42 11 78
42 12 113
42 13 69
42 14 72
42 15 36
42 16 1
42 17 68
42 18 116
42 19 108
42 20 79
42 21 28
42 22 76
42 23 92
42 24 82
42 25 20
42 26 7
42 27 85
42 28 105
42 29 16
42 30 2
42 31 20
42 32 115
42 33 5
42 34 34
42 35 99
42 36 72
42 37 102
42 38 85
42 39 114
42 40 60
42 41 11
43 0 35
43 1 84
43 2 67
43 3 22
43 4 112
43 5 19
43 6 93
43 7 70
43 8 4
43 9 97
43 10 48
43 11 46
43 12 24
43 13 76
43 14 32
43 15 5
43 16 65
43 17 29
43 18 69
43 19 33
43 20 61
43 21 65
43 22 54
43 23 30
43 24 15
43 25 111
43 26 5
43 27 89
43 28 16
43 29 116
43 30 2
43 31 94
43 32 52
43 33 14
43 34 79
43 35 119
43 36 79
43 37 108
43 38 116
43 39 77
43 40 119
43 41 68
43 42 60
44 0 18
44 1 62
44 2 25
44 3 98
44 4 59
44 5 62
44 6 105
44 7 87
44 8 90
44 9 95
44 10 6
44 11 88
44 12 111
44 13 85
44 14 76
44 15 55
44 16 58
44 17 75
44 18 32
44 19 97
44 20 49
44 21 111
44 22 79
44 23 23
44 24 97
44 25 89
44 26 24
44 27 22
44 28 22
44 29 25
44 30 5
44 31 26
44 32 111
44 33 79
44 34 60
44 35 51
44 36 101
44 37 32
44 38 39
44 39 66
44 40 63
44 41 1
44 42 43
44 43 77
45 0 117
45 1 99
45 2 53
45 3 108
45 4 107
45 5 64
45 6 90
45 7 109
45 8 41
45 9 98
45 10 99
45 11 18
45 12 103
45 13 25
45 14 5
45 15 54
45 16 22
45 17 10
45 18 27
45 19 104
45 20 11
45 21 120
45 22 79
45 23 8
45 24 15
45 25 104
45 26 92
45 27 34
45 28 19
45 29 96
45 30 17
45 31 42
45 32 9
45 33 88
45 34 84
45 35 48
45 36 119
45 37 117
45 38 23
45 39 26
45 40 99
45 41 50
45 42 38
45 43 57
45 44 18
46 0 7
46 1 17
46 2 12
46 3 75
46 4 120
46 5 77
46 6 79
46 7 50
46 8 15
46 9 53
46 10 61
46 11 50
46 12 7
46 13 32
46 14 6
46 15 26
46 16 31
46 17 62
46 18 39
46 19 11
46 20 17
46 21 115
46 22 101
46 23 51
46 24 86
46 25 80
46 26 43
46 27 48
46 28 19
46 29 50
46 30 114
46 31 108
46 32 21
46 33 45
46 34 81
46 35 102
46 36 24
46 37 89
46 38 78
46 39 57
46 40 85
46 41 70
46 42 27
46 43 34
46 44 26
46 45 20
47 0 93
47 1 81
47 2 95
47 3 51
47 4 22
47 5 55
47 6 8
47 7 51
47 8 110
47 9 97
47 10 10
47 11 111
47 12 73
47 13 32
47 14 65
47 15 46
47 16 15
47 17 112
47 18 29
47 19 15
47 20 103
47 21 119
47 22 85
47 23 40
47 24 75
47 25 8
47 26 53
47 27 25
47 28 33
47 29 23
47 30 21
47 31 61
47 32 14
47 33 36
47 34 6
47 35 9
47 36 74
47 37 73
47 38 90
47 39 42
47 40 1
47 41 24
47 42 104
47 43 98
47 44 94
47 45 88
47 46 1
48 0 107
48 1 27
48 2 11
48 3 72
48 4 88
48 5 41
48 6 45
48 7 26
48 8 114
48 9 3
48 10 72
48 11 114
48 12 30
48 13 27
48 14 105
48 15 25
48 16 52
48 17 40
48 18 12
48 19 100
48 20 37
48 21 37
48 22 43
48 23 70
48 24 50
48 25 8
48 26 56
48 27 27
48 28 84
48 29 23
48 30 71
48 31 104
48 32 49
48 33 5
48 34 76
48 35 27
48 36 110
48 37 92
48 38 110
48 39 3
48 40 37
48 41 101
48 42 60
48 43 81
48 44 101
48 45 8
48 46 95
48 47 107
49 0 71
49 1 28
49 2 85
49 3 119
49 4 3
49 5 101
49 6 39
49 7 117
49 8 24
49 9 70
49 10 85
49 11 73
49 12 101
49 13 58
49 14 65
49 15 21
49 16 73
49 17 102
49 18 78
49 19 69
49 20 14
49 21 75
49 22 67
49 23 107
49 24 79
49 25 61
49 26 75
49 27 93
49 28 86
49 29 11
49 30 59
49 31 1
49 32 65
49 33 3
49 34 93
49 35 40
49 36 71
49 37 69
49 38 43
49 39 36
49 40 60
49 41 53
49 42 78
49 43 78
49 44 97
49 45 69
49 46 71
49 47 84
49 48 94
50 0 38
50 1 56
50 2 64
50 3 116
50 4 17
50 5 74
50 6 2
50 7 29
50 8 98
50 9 82
50 10 8
50 11 77
50 12 102
50 13 4
50 14 60
50 15 19
50 16 36
50 17 47
50 18 64
50 19 30
50 20 71
50 21 107
50 22 92
50 23 99
50 24 100
50 25 6
50 26 6
50 27 109
50 28 71
50 29 56
50 30 90
50 31 31
50 32 45
50 33 6
50 34 35
50 35 80
50 36 24
50 37 31
50 38 106
50 39 78
50 40 104
50 41 74
50 42 108
50 43 96
50 44 118
50 45 50
50 46 36
50 47 6
50 48 102
50 49 61
51 0 4
51 1 62
51 2 68
51 3 46
51 4 45
51 5 89
51 6 22
51 7 17
51 8 64
51 9 67
51 10 86
51 11 2
51 12 17
51 13 92
51 14 23
51 15 51
51 16 32
51 17 46
51 18 31
51 19 103
51 20 22
51 21 33
51 22 106
51 23 120
51 24 10
51 25 26
51 26 25
51 27 113
51 28 38
51 29 115
51 30 78
51 31 37
51 32 115
51 33 68
51 34 83
51 35 88
51 36 90
51 37 34
51 38 5
51 39 118
51 40 87
51 41 86
51 42 16
51 43 73
51 44 9
51 45 107
51 46 2
51 47 6
51 48 2
51 49 83
51 50 28
52 0 50
52 1 89
52 2 81
52 3 24
52 4 59
52 5 94
52 6 17
52 7 19
52 8 77
52 9 34
52 10 17
52 11 86
52 12 77
52 13 1
52 14 84
52 15 70
52 16 80
52 17 14
52 18 49
52 19 120
52 20 108
52 21 6
52 22 35
52 23 112
52 24 66
52 25 7
52 26 53
52 27 14
52 28 30
52 29 14
52 30 113
52 31 49
52 32 117
52 33 46
52 34 2
52 35 17
52 36 23
52 37 49
52 38 56
52 39 40
52 40 84
52 41 83
52 42 98
52 43 5
52 44 50
52 45 45
52 46 82
52 47 23
52 48 16
52 49 19
52 50 40
52 51 69
53 0 104
53 1 78
53 2 63
53 3 119
53 4 59
53 5 94
53 6 108
53 7 80
53 8 74
53 9 13
53 10 82
53 11 44
53 12 3
53 13 108
53 14 55
53 15 109
53 16 9
53 17 68
53 18 17
53 19 119
53 20 100
53 21 82
53 22 67
53 23 58
53 24 1
53 25 79
53 26 23
53 27 83
53 28 90
53 29 117
53 30 1
53 31 16
53 32 116
53 33 36
53 34 49
53 35 109
53 36 99
53 37 10
53 38 92
53 39 82
53 40 51
53 41 43
53 42 8
53 43 104
53 44 108
53 45 108
53 46 68
53 47 63
53 48 46
53 49 111
53 50 68
53 51 5
53 52 86
54 0 116
54 1 82
54 2 81
54 3 81
54 4 89
54 5 26
54 6 48
54 7 20
54 8 110
54 9 55
54 10 98
54 11 86
54 12 35
54 13 12
54 14 108
54 15 11
54 16 92
54 17 3
54 18 108
54 19 2
54 20 120
54 21 32
54 22 90
54 23 20
54 24 87
54 25 85
54 26 83
54 27 6
54 28 15
54 29 119
54 30 117
54 31 43
54 32 88
54 33 81
54 34 111
54 35 114
54 36 87
54 37 55
54 38 82
54 39 60
54 40 66
54 41 31
54 42 48
54 43 65
54 44 42
54 45 38
54 46 84
54 47 49
54 48 73
54 49 63
54 50 83
54 51 26
54 52 100
54 53 102
55 0 106
55 1 11
55 2 46
55 3 58
55 4 90
55 5 10
55 6 85
55 7 116
55 8 90
55 9 68
55 10 64
55 11 71
55 12 17
55 13 7
55 14 99
55 15 86
55 16 103
55 17 88
55 18 66
55 19 106
55 20 29
55 21 19
55 22 68
55 23 91
55 24 57
55 25 100
55 26 23
55 27 45
55 28 116
55 29 89
55 30 26
55 31 28
55 32 2
55 33 116
55 34 53
55 35 12
55 36 65
55 37 119
55 38 2
55 39 82
55 40 86
55 41 34
55 42 25
55 43 54
55 44 87
55 45 37
55 46 34
55 47 42
55 48 11
55 49 13
55 50 70
55 51 16
55 52 18
55 53 115
55 54 29
56 0 58
56 1 87
56 2 97
56 3 100
56 4 43
56 5 12
56 6 73
56 7 119
56 8 5
56 9 87
56 10 72
56 11 109
56 12 97
56 13 41
56 14 22
56 15 9
56 16 51
56 17 60
56 18 5
56 19 95
56 20 81
56 21 59
56 22 63
56 23 30
56 24 76
56 25 40
56 26 67
56 27 30
56 28 64
56 29 41
56 30 54
56 31 103
56 32 42
56 33 23
56 34 67
56 35 59
56 36 45
56 37 96
56 38 65
56 39 43
56 40 65
56 41 34
56 42 76
56 43 21
56 44 34
56 45 91
56 46 42
56 47 63
56 48 116
56 49 112
56 50 41
56 51 47
56 52 54
56 53 64
56 54 52
56 55 88
57 0 20
57 1 23
57 2 9
57 3 116
57 4 94
57 5 35
57 6 78
57 7 113
57 8 48
57 9 92
57 10 58
57 11 82
57 12 92
57 13 6
57 14 44
57 15 100
57 16 6
57 17 73
57 18 4
57 19 110
57 20 6
57 21 76
57 22 112
57 23 62
57 24 117
57 25 113
57 26 12
57 27 18
57 28 20
57 29 22
57 30 9
57 31 55
57 32 38
57 33 103
57 34 20
57 35 104
57 36 10
57 37 82
57 38 59
57 39 1
57 40 32
57 41 46
57 42 69
57 43 44
57 44 98
57 45 120
57 46 52
57 47 14
57 48 38
57 49 18
57 50 52
57 51 117
57 52 105
57 53 114
57 54 56
57 55 76
57 56 49
58 0 55
58 1 119
58 2 11
58 3 99
58 4 107
58 5 23
58 6 97
58 7 70
58 8 120
58 9 25
58 10 88
58 11 73
58 12 34
58 13 26
58 14 50
58 15 72
58 16 114
58 17 100
58 18 106
58 19 10
58 20 103
58 21 120
58 22 118
58 23 115
58 24 94
58 25 69
58 26 33
58 27 22
58 28 90
58 29 120
58 30 91
58 31 112
58 32 40
58 33 110
58 34 7
58 35 49
58 36 14
58 37 81
58 38 87
58 39 5
58 40 81
58 41 109
58 42 105
58 43 108
58 44 104
58 45 97
58 46 38
58 47 52
58 48 30
58 49 76
58 50 97
58 51 102
58 52 101
58 53 81
58 54 30
58 55 100
58 56 88
58 57 85
59 0 90
59 1 57
59 2 2
59 3 64
59 4 4
59 5 40
59 6 29
59 7 44
59 8 74
59 9 40
59 10 33
59 11 111
59 12 71
59 13 85
59 14 31
59 15 79
59 16 7
59 17 29
59 18 16
59 19 44
59 20 65
59 21 77
59 22 97
59 23 23
59 24 110
59 25 60
59 26 3
59 27 94
59 28 74
59 29 59
59 30 55
59 31 117
59 32 26
59 33 82
59 34 74
59 35 48
59 36 86
59 37 110
59 38 69
59 39 101
59 40 117
59 41 98
59 42 73
59 43 38
59 44 20
59 45 118
59 46 35
59 47 116
59 48 48
59 49 13
59 50 68
59 51 65
59 52 64
59 53 37
59 54 102
59 55 110
59 56 6
59 57 114
59 58 35
60 0 96
60 1 73
60 2 65
60 3 72
60 4 103
60 5 38
60 6 78
60 7 20
60 8 79
60 9 16
60 10 106
60 11 42
60 12 34
60 13 100
60 14 39
60 15 13
60 16 62
60 17 58
60 18 5
60 19 55
60 20 104
60 21 33
60 22 63
60 23 49
60 24 112
60 25 24
60 26 17
60 27 23
60 28 101
60 29 5
60 30 5
60 31 25
60 32 89
60 33 59
60 34 7
60 35 101
60 36 65
60 37 48
60 38 57
60 39 117
60 40 64
60 41 63
60 42 96
60 43 17
60 44 52
60 45 45
60 46 112
60 47 49
60 48 119
60 49 88
60 50 30
60 51 53
60 52 38
60 53 26
60 54 63
60 55 59
60 56 58
60 57 105
60 58 106
60 59 15
61 0 5
61 1 74
61 2 115
61 3 117
61 4 69
61 5 17
61 6 4
61 7 101
61 8 43
61 9 49
61 10 114
61 11 109
61 12 96
61 13 4
61 14 115
61 15 115
61 16 33
61 17 12
61 18 92
61 19 85
61 20 39
61 21 26
61 22 63
61 23 101
61 24 73
61 25 101
61 26 62
61 27 26
61 28 108
61 29 23
61 30 87
61 31 42
61 32 2
61 33 35
61 34 73
61 35 32
61 36 76
61 37 118
61 38 85
61 39 15
61 40 19
61 41 101
61 42 115
61 43 42
61 44 24
61 45 63
61 46 94
61 47 19
61 48 51
61 49 92
61 50 47
61 51 82
61 52 84
61 53 24
61 54 99
61 55 12
61 56 92
61 57 89
61 58 86
61 59 48
61 60 5
62 0 1
62 1 83
62 2 104
62 3 12
62 4 36
62 5 7
62 6 25
62 7 3
62 8 103
62 9 8
62 10 2
62 11 89
62 12 75
62 13 107
62 14 6
62 15 98
62 16 66
62 17 31
62 18 43
62 19 65
62 20 36
62 21 25
62 22 42
62 23 28
62 24 104
62 25 58
62 26 44
62 27 117
62 28 46
62 29 62
62 30 27
62 31 43
62 32 36
62 33 9
62 34 106
62 35 105
62 36 56
62 37 111
62 38 26
62 39 2
62 40 120
62 41 20
62 42 60
62 43 32
62 44 120
62 45 3
62 46 9
62 47 66
62 48 30
62 49 39
62 50 40
62 51 90
62 52 81
62 53 108
62 54 4
62 55 53
62 56 21
62 57 77
62 58 56
62 59 113
62 60 5
62 61 114
63 0 14
63 1 31
63 2 9
63 3 97
63 4 87
63 5 70
63 6 17
63 7 94
63 8 117
63 9 54
63 10 104
63 11 69
63 12 22
63 13 76
63 14 57
63 15 115
63 16 84
63 17 53
63 18 27
63 19 32
63 20 114
63 21 120
63 22 101
63 23 96
63 24 26
63 25 74
63 26 99
63 27 80
63 28 90
63 29 44
63 30 80
63 31 5
63 32 80
63 33 66
63 34 32
63 35 108
63 36 90
63 37 63
63 38 14
63 39 70
63 40 32
63 41 19
63 42 9
63 43 96
63 44 17
63 45 108
63 46 83
63 47 1
63 48 36
63 49 17
63 50 56
63 51 20
63 52 2
63 53 64
63 54 76
63 55 36
63 56 59
63 57 27
63 58 13
63 59 63
63 60 2
63 61 34
63 62 99
64 0 29
64 1 61
64 2 97
64 3 78
64 4 99
64 5 28
64 6 56
64 7 59
64 8 3
64 9 113
64 10 45
64 11 41
64 12 78
64 13 106
64 14 83
64 15 43
64 16 74
64 17 33
64 18 34
64 19 33
64 20 31
64 21 31
64 22 30
64 23 79
64 24 35
64 25 51
64 26 42
64 27 101
64 28 26
64 29 52
64 30 61
64 31 71
64 32 99
64 33 35
64 34 99
64 35 92
64 36 114
64 37 35
64 38 3
64 39 72
64 40 120
64 41 95
64 42 14
64 43 37
64 44 79
64 45 25
64 46 75
64 47 16
64 48 90
64 49 114
64 50 107
64 51 16
64 52 43
64 53 19
64 54 12
64 55 26
64 56 62
64 57 60
64 58 8
64 59 33
64 60 24
64 61 52
64 62 4
64 63 53
65 0 36
65 1 60
65 2 119
65 3 95
65 4 108
65 5 93
65 6 16
65 7 112
65 8 119
65 9 54
65 10 72
65 11 66
65 12 63
65 13 18
65 14 80
65 15 68
65 16 38
65 17 58
65 18 99
65 19 77
65 20 33
65 21 109
65 22 68
65 23 23
65 24 3
65 25 1
65 26 101
65 27 117
65 28 87
65 29 73
65 30 53
65 31 25
65 32 99
65 33 51
65 34 83
65 35 55
65 36 120
65 37 22
65 38 44
65 39 3
65 40 56
65 41 41
65 42 81
65 43 46
65 44 54
65 45 103
65 46 72
65 47 116
65 48 66
65 49 93
65 50 14
65 51 50
65 52 25
65 53 38
65 54 115
65 55 119
65 56 67
65 57 114
65 58 117
65 59 93
65 60 38
65 61 77
65 62 34
65 63 109
65 64 71
66 0 7
66 1 89
66 2 119
66 3 83
66 4 71
66 5 51
66 6 42
66 7 34
66 8 63
66 9 21
66 10 101
66 11 73
66 12 62
66 13 44
66 14 37
66 15 55
66 16 42
66 17 53
66 18 119
66 19 20
66 20 80
66 21 112
66 22 50
66 23 115
66 24 113
66 25 117
66 26 77
66 27 18
66 28 24
66 29 63
66 30 86
66 31 29
66 32 114
66 33 91
66 34 114
66 35 106
66 36 61
66 37 58
66 38 32
66 39 13
66 40 78
66 41 47
66 42 67
66 43 63
66 44 28
66 45 65
66 46 22
66 47 21
66 48 37
66 49 59
66 50 85
66 51 42
66 52 81
66 53 98
66 54 70
66 55 68
66 56 17
66 57 118
66 58 69
66 59 54
66 60 99
66 61 110
66 62 102
66 63 34
66 64 24
66 65 73
67 0 26
67 1 50
67 2 97
67 3 75
67 4 105
67 5 98
67 6 101
67 7 49
67 8 79
67 9 57
67 10 118
67 11 81
67 12 80
67 13 51
67 14 23
67 15 47
67 16 79
67 17 68
67 18 45
67 19 4
67 20 99
67 21 76
67 22 15
67 23 19
67 24 67
67 25 108
67 26 105
67 27 51
67 28 56
67 29 58
67 30 35
67 31 94
67 32 97
67 33 53
67 34 80
67 35 31
67 36 117
67 37 108
67 38 75
67 39 68
67 40 83
67 41 110
67 42 56
67 43 88
67 44 26
67 45 105
67 46 108
67 47 11
67 48 69
67 49 79
67 50 4
67 51 67
67 52 73
67 53 90
67 54 97
67 55 13
67 56 51
67 57 7
67 58 47
67 59 77
67 60 68
67 61 33
67 62 2
67 63 97
67 64 106
67 65 100
67 66 49
68 0 56
68 1 110
68 2 105
68 3 95
68 4 102
68 5 62
68 6 103
68 7 7
68 8 62
68 9 74
68 10 70
68 11 75
68 12 95
68 13 87
68 14 106
68 15 3
68 16 28
68 17 50
68 18 24
68 19 44
68 20 34
68 21 96
68 22 91
68 23 4
68 24 18
68 25 112
68 26 21
68 27 49
68 28 78
68 29 67
68 30 69
68 31 54
68 32 60
68 33 68
68 34 81
68 35 42
68 36 33
68 37 25
68 38 36
68 39 81
68 40 4
68 41 103
68 42 45
68 43 84
68 44 42
68 45 100
68 46 39
68 47 95
68 48 33
68 49 84
68 50 51
68 51 14
68 52 46
68 53 115
68 54 63
68 55 118
68 56 118
68 57 120
68 58 21
68 59 75
68 60 16
68 61 105
68 62 26
68 63 26
68 64 14
68 65 20
68 66 9
68 67 49
69 0 39
69 1 120
69 2 76
69 3 87
69 4 111
69 5 6
69 6 31
69 7 68
69 8 79
69 9 116
69 10 38
69 11 84
69 12 71
69 13 88
69 14 47
69 15 51
69 16 92
69 17 93
69 18 114
69 19 99
69 20 119
69 21 93
69 22 21
69 23 102
69 24 43
69 25 81
69 26 26
69 27 2
69 28 119
69 29 30
69 30 12
69 31 11
69 32 39
69 33 16
69 34 4
69 35 117
69 36 103
69 37 38
69 38 103
69 39 78
69 40 11
69 41 56
69 42 98
69 43 118
69 44 30
69 45 65
69 46 2
69 47 77
69 48 101
69 49 72
69 50 17
69 51 59
69 52 34
69 53 88
69 54 41
69 55 25
69 56 7
69 57 63
69 58 47
69 59 115
69 60 21
69 61 68
69 62 48
69 63 51
69 64 107
69 65 97
69 66 104
69 67 57
69 68 116
